p cnf 128 679
54 59 0
51 57 0
48 66 0
45 58 95 0
32 37 0
27 47 69 0
24 42 73 76 0
33 77 0
5 31 0
55 83 0
41 44 50 0
17 35 111 117 0
7 25 0
65 71 0
23 40 0
15 19 20 0
10 12 103 0
9 80 81 105 0
30 34 36 107 0
2 4 39 62 0
1 16 0
6 78 85 0
46 86 88 90 93 0
38 53 94 96 0
68 74 0
21 97 0
56 60 98 0
49 67 125 127 0
18 99 0
79 100 122 0
22 43 101 0
14 102 0
82 104 106 0
84 108 0
26 113 0
-48 -59 0
-13 -73 0
-55 -73 0
-17 -73 0
-13 -55 0
-13 -17 0
-17 -55 0
-87 -110 0
-40 -110 0
-105 -110 0
-40 -87 0
-87 -105 0
-40 -105 0
-4 -36 0
-36 -114 0
-36 -53 0
-4 -114 0
-4 -53 0
-53 -114 0
-59 -73 0
-59 -110 0
-36 -59 0
-73 -110 0
-36 -73 0
-36 -110 0
-13 -48 0
-48 -87 0
-4 -48 0
-13 -87 0
-4 -13 0
-4 -87 0
-40 -55 0
-55 -114 0
-40 -114 0
-17 -105 0
-17 -53 0
-53 -105 0
-11 -24 0
-24 -31 0
-24 -63 0
-24 -50 0
-11 -31 0
-11 -63 0
-11 -50 0
-31 -63 0
-31 -50 0
-50 -63 0
-89 -115 0
-71 -115 0
-20 -115 0
-12 -115 0
-71 -89 0
-20 -89 0
-12 -89 0
-20 -71 0
-12 -71 0
-12 -20 0
-2 -34 0
-16 -34 0
-34 -78 0
-34 -86 0
-2 -16 0
-2 -78 0
-2 -86 0
-16 -78 0
-16 -86 0
-78 -86 0
-99 -122 0
-70 -99 0
-43 -99 0
-70 -122 0
-43 -122 0
-43 -70 0
-104 -108 0
-26 -104 0
-104 -119 0
-26 -108 0
-108 -119 0
-26 -119 0
-24 -115 0
-24 -34 0
-24 -99 0
-24 -104 0
-34 -115 0
-99 -115 0
-104 -115 0
-34 -99 0
-34 -104 0
-99 -104 0
-11 -89 0
-2 -11 0
-11 -122 0
-11 -108 0
-2 -89 0
-89 -122 0
-89 -108 0
-2 -122 0
-2 -108 0
-108 -122 0
-31 -71 0
-16 -31 0
-16 -71 0
-20 -63 0
-63 -78 0
-63 -70 0
-26 -63 0
-20 -78 0
-20 -70 0
-20 -26 0
-70 -78 0
-26 -78 0
-26 -70 0
-12 -50 0
-50 -86 0
-43 -50 0
-50 -119 0
-12 -86 0
-12 -43 0
-12 -119 0
-43 -86 0
-86 -119 0
-43 -119 0
-51 -54 0
-54 -66 0
-51 -66 0
-76 -77 0
-76 -121 0
-76 -83 0
-44 -76 0
-35 -76 0
-77 -121 0
-77 -83 0
-44 -77 0
-35 -77 0
-83 -121 0
-44 -121 0
-35 -121 0
-44 -83 0
-35 -83 0
-35 -44 0
-7 -109 0
-91 -109 0
-23 -109 0
-10 -109 0
-81 -109 0
-7 -91 0
-7 -23 0
-7 -10 0
-7 -81 0
-23 -91 0
-10 -91 0
-81 -91 0
-10 -23 0
-23 -81 0
-10 -81 0
-30 -61 0
-30 -62 0
-30 -116 0
-30 -88 0
-30 -94 0
-61 -62 0
-61 -116 0
-61 -88 0
-61 -94 0
-62 -116 0
-62 -88 0
-62 -94 0
-88 -116 0
-94 -116 0
-88 -94 0
-72 -74 0
-21 -72 0
-3 -72 0
-72 -125 0
-21 -74 0
-3 -74 0
-74 -125 0
-3 -21 0
-21 -125 0
-3 -125 0
-18 -112 0
-18 -79 0
-18 -101 0
-18 -102 0
-79 -112 0
-101 -112 0
-102 -112 0
-79 -101 0
-79 -102 0
-101 -102 0
-54 -76 0
-54 -109 0
-30 -54 0
-54 -72 0
-18 -54 0
-76 -109 0
-30 -76 0
-72 -76 0
-18 -76 0
-30 -109 0
-72 -109 0
-18 -109 0
-30 -72 0
-18 -30 0
-18 -72 0
-51 -77 0
-7 -51 0
-51 -61 0
-51 -74 0
-51 -112 0
-7 -77 0
-61 -77 0
-74 -77 0
-77 -112 0
-7 -61 0
-7 -74 0
-7 -112 0
-61 -74 0
-61 -112 0
-74 -112 0
-66 -121 0
-66 -91 0
-62 -66 0
-21 -66 0
-66 -79 0
-91 -121 0
-62 -121 0
-21 -121 0
-79 -121 0
-62 -91 0
-21 -91 0
-79 -91 0
-21 -62 0
-62 -79 0
-21 -79 0
-23 -83 0
-83 -116 0
-23 -116 0
-10 -44 0
-44 -88 0
-3 -44 0
-44 -101 0
-10 -88 0
-3 -10 0
-10 -101 0
-3 -88 0
-88 -101 0
-3 -101 0
-35 -81 0
-35 -94 0
-35 -125 0
-35 -102 0
-81 -94 0
-81 -125 0
-81 -102 0
-94 -125 0
-94 -102 0
-102 -125 0
-37 -45 0
-27 -45 0
-27 -37 0
-6 -90 0
-6 -96 0
-90 -96 0
-60 -68 0
-64 -68 0
-68 -127 0
-60 -64 0
-60 -127 0
-64 -127 0
-75 -118 0
-22 -118 0
-14 -118 0
-22 -75 0
-14 -75 0
-14 -22 0
-68 -118 0
-6 -45 0
-45 -60 0
-45 -75 0
-6 -60 0
-6 -75 0
-60 -75 0
-37 -90 0
-37 -64 0
-22 -37 0
-64 -90 0
-22 -90 0
-22 -64 0
-27 -96 0
-27 -127 0
-14 -27 0
-96 -127 0
-14 -96 0
-14 -127 0
-5 -41 0
-1 -93 0
-1 -5 0
-41 -93 0
-32 -58 0
-47 -58 0
-32 -47 0
-123 -124 0
-19 -123 0
-103 -123 0
-80 -123 0
-19 -124 0
-103 -124 0
-80 -124 0
-19 -103 0
-19 -80 0
-80 -103 0
-39 -107 0
-85 -107 0
-46 -107 0
-38 -107 0
-39 -85 0
-39 -46 0
-38 -39 0
-46 -85 0
-38 -85 0
-38 -46 0
-28 -97 0
-28 -56 0
-28 -52 0
-28 -67 0
-56 -97 0
-52 -97 0
-67 -97 0
-52 -56 0
-56 -67 0
-52 -67 0
-84 -106 0
-106 -113 0
-8 -106 0
-92 -106 0
-84 -113 0
-8 -84 0
-84 -92 0
-8 -113 0
-92 -113 0
-8 -92 0
-107 -123 0
-28 -123 0
-106 -123 0
-28 -107 0
-106 -107 0
-28 -106 0
-39 -124 0
-97 -124 0
-84 -124 0
-39 -97 0
-39 -84 0
-84 -97 0
-19 -58 0
-58 -85 0
-56 -58 0
-58 -113 0
-19 -85 0
-19 -56 0
-19 -113 0
-56 -85 0
-85 -113 0
-56 -113 0
-32 -103 0
-32 -46 0
-32 -52 0
-8 -32 0
-46 -103 0
-52 -103 0
-8 -103 0
-46 -52 0
-8 -46 0
-8 -52 0
-47 -80 0
-38 -47 0
-47 -67 0
-47 -92 0
-38 -80 0
-67 -80 0
-80 -92 0
-38 -67 0
-38 -92 0
-67 -92 0
-111 -126 0
-49 -98 0
-98 -126 0
-49 -111 0
-69 -95 0
-33 -42 0
-42 -128 0
-42 -117 0
-33 -128 0
-33 -117 0
-117 -128 0
-25 -120 0
-15 -120 0
-9 -120 0
-15 -25 0
-9 -25 0
-9 -15 0
-29 -82 0
-42 -120 0
-42 -82 0
-82 -120 0
-25 -33 0
-29 -33 0
-25 -29 0
-95 -128 0
-15 -95 0
-15 -128 0
-69 -117 0
-9 -69 0
-9 -117 0
-48 -59 0
-51 -54 0
-54 -66 0
-51 -66 0
-37 -45 0
-27 -45 0
-27 -37 0
-32 -58 0
-47 -58 0
-32 -47 0
-69 -95 0
-13 -73 0
-73 -110 0
-73 -87 0
-36 -73 0
-4 -73 0
-13 -110 0
-13 -87 0
-13 -36 0
-4 -13 0
-87 -110 0
-36 -110 0
-4 -110 0
-36 -87 0
-4 -87 0
-4 -36 0
-11 -24 0
-24 -115 0
-24 -89 0
-24 -34 0
-2 -24 0
-11 -115 0
-11 -89 0
-11 -34 0
-2 -11 0
-89 -115 0
-34 -115 0
-2 -115 0
-34 -89 0
-2 -89 0
-2 -34 0
-76 -77 0
-76 -121 0
-76 -109 0
-7 -76 0
-76 -91 0
-30 -76 0
-61 -76 0
-62 -76 0
-77 -121 0
-77 -109 0
-7 -77 0
-77 -91 0
-30 -77 0
-61 -77 0
-62 -77 0
-109 -121 0
-7 -121 0
-91 -121 0
-30 -121 0
-61 -121 0
-62 -121 0
-7 -109 0
-91 -109 0
-30 -109 0
-61 -109 0
-62 -109 0
-7 -91 0
-7 -30 0
-7 -61 0
-7 -62 0
-30 -91 0
-61 -91 0
-62 -91 0
-30 -61 0
-30 -62 0
-61 -62 0
-123 -124 0
-107 -123 0
-39 -123 0
-107 -124 0
-39 -124 0
-39 -107 0
-33 -42 0
-42 -120 0
-25 -42 0
-33 -120 0
-25 -33 0
-25 -120 0
-40 -55 0
-55 -114 0
-40 -114 0
-31 -71 0
-16 -31 0
-16 -71 0
-23 -83 0
-83 -116 0
-23 -116 0
-1 -5 0
-17 -105 0
-17 -53 0
-53 -105 0
-50 -63 0
-20 -63 0
-12 -63 0
-63 -78 0
-63 -86 0
-20 -50 0
-12 -50 0
-50 -78 0
-50 -86 0
-12 -20 0
-20 -78 0
-20 -86 0
-12 -78 0
-12 -86 0
-78 -86 0
-35 -44 0
-10 -44 0
-44 -81 0
-44 -88 0
-44 -94 0
-10 -35 0
-35 -81 0
-35 -88 0
-35 -94 0
-10 -81 0
-10 -88 0
-10 -94 0
-81 -88 0
-81 -94 0
-88 -94 0
-6 -90 0
-6 -96 0
-90 -96 0
-41 -93 0
-19 -103 0
-19 -80 0
-19 -85 0
-19 -46 0
-19 -38 0
-80 -103 0
-85 -103 0
-46 -103 0
-38 -103 0
-80 -85 0
-46 -80 0
-38 -80 0
-46 -85 0
-38 -85 0
-38 -46 0
-111 -126 0
-117 -128 0
-15 -128 0
-9 -128 0
-15 -117 0
-9 -117 0
-9 -15 0
-99 -122 0
-99 -104 0
-99 -108 0
-104 -122 0
-108 -122 0
-104 -108 0
-72 -74 0
-21 -72 0
-18 -72 0
-72 -112 0
-72 -79 0
-21 -74 0
-18 -74 0
-74 -112 0
-74 -79 0
-18 -21 0
-21 -112 0
-21 -79 0
-18 -112 0
-18 -79 0
-79 -112 0
-68 -118 0
-28 -97 0
-28 -106 0
-28 -84 0
-97 -106 0
-84 -97 0
-84 -106 0
-29 -82 0
-43 -70 0
-26 -70 0
-70 -119 0
-26 -43 0
-43 -119 0
-26 -119 0
-3 -125 0
-3 -101 0
-3 -102 0
-101 -125 0
-102 -125 0
-101 -102 0
-60 -64 0
-60 -127 0
-60 -75 0
-22 -60 0
-14 -60 0
-64 -127 0
-64 -75 0
-22 -64 0
-14 -64 0
-75 -127 0
-22 -127 0
-14 -127 0
-22 -75 0
-14 -75 0
-14 -22 0
-52 -56 0
-56 -67 0
-56 -113 0
-8 -56 0
-56 -92 0
-52 -67 0
-52 -113 0
-8 -52 0
-52 -92 0
-67 -113 0
-8 -67 0
-67 -92 0
-8 -113 0
-92 -113 0
-8 -92 0
-49 -98 0
